143
1000
370
256
90
376
1
262
329
229
174
234
110
418
227
493
23
105
33
21
467
145
276
155
141
229
266
471
74
156
5
267
29
3
265
90
23
79
357
270
108
380
30
246
43
151
5
110
308
96
166
316
42
47
136
332
272
306
479
376
343
156
288
10
8
6
422
318
27
31
146
378
66
38
64
18
301
51
156
417
68
159
16
438
31
118
39
256
485
189
479
345
278
345
289
33
317
312
249
199
339
245
231
274
309
223
344
202
153
86
429
271
175
86
4
139
248
416
131
39
179
342
386
378
271
92
253
129
397
415
42
162
359
459
463
171
265
66
497
11
237
115
368
127
115
